============================[ Problem Statistics ]=============================|                                                                             ||  Number of variables:          4242                                         ||  Number of clauses:            9671                                         ||  Parse time:                   0.08 s                                       ||                                                                             |============================[ Search Statistics ]==============================| Conflicts |          ORIGINAL         |          LEARNT          | Progress ||           |    Vars  Clauses Literals |    Limit  Clauses Lit/Cl |          |==============================================================================================================================================================restarts              : 1conflicts             : 47             (435 /sec)decisions             : 132            (0.00 % random) (1222 /sec)propagations          : 8118           (75167 /sec)conflict literals     : 1986           (95.84 % deleted)CPU time              : 0.108 sSATISFIABLE